c CaDiCaL SAT Solver
c Copyright (c) 2016-2023 Armin Biere, University of Freiburg
c Version 1.5.3
c 
c Reading DIMACS file problem3.cnf
c Parsed 2847 variables, 9234 clauses
c 
c --- [ configuration ] ---
c chronological 1
c --chrono=1
c phase 1
c stable 1
c 
c --- [ solving ] ---
c 
c  seconds     reductions   redundant  irredundant
c          MB  restarts     trail       glue
c           level  conflicts  clauses    literals
c 
c *  0.00  34  0  0   0    0     0   0% 0   0  9234 29847
c   1.23  35  28 145  2847  1245  2108  45% 12  234  9234 29847
c   2.45  36  31 289  2847  2489  3847  43% 15  478  9234 29847
c   3.78  37  29 432  2847  3734  5234  47% 14  723  9234 29847
c   5.12  38  33 578  2847  4978  6589  44% 16  967  9234 29847
c   6.34  39  30 724  2847  6223  7845  48% 13  1214  9234 29847
c   7.89  40  32 869  2847  7467  8923  46% 15  1456  9234 29847
c   9.23  41  31 1015  2847  8712  9867  45% 14  1701  9234 29847
c  10.45  42  34 1161  2847  9956  10734  42% 17  1948  9234 29847
c  11.78  43  29 1307  2847  11201  11523  49% 12  2189  9234 29847
c  13.12  44  33 1453  2847  12445  12289  44% 16  2434  9234 29847
c  14.34  45  31 1598  2847  13689  12945  46% 14  2678  9234 29847
c 
c --- [ result ] ---
c 
s SATISFIABLE
c 
c --- [ statistics ] ---
c 
c conflicts:              13689
c decisions:              24567
c propagations:           3847234
c restarts:               1598
c chronological:          8234 (60.15%)
c 
c --- [ resources ] ---
c 
c total process time since initialization:        14.89 seconds
c total real time since initialization:           14.91 seconds
c peak memory usage:                              45.23 MB
c 